nbA = 28 ;
attribute_domains = [{10, 17, 18, 22},{7, 9, 23, 37},{6, 12, 17, 22, 32, 33},{6, 12, 19, 24, 32, 33},{7, 17, 18, 22, 23, 37},{7, 8, 10, 11, 17, 18, 20, 22, 26, 37},{5, 7, 11, 18, 20, 23, 30, 37},{5, 7, 11, 20, 23, 30, 37},{5, 7, 11, 20, 23, 30, 37},{5, 7, 11, 17, 18, 20, 22, 23, 30, 37},{17, 18, 22, 23},{6, 12, 32, 33},{10, 17, 18, 22},{5, 6, 12, 30},{7, 8, 11, 20, 23, 26, 29, 31, 37},{6, 12, 32, 33},{7, 9, 23, 37},{6, 12},{5, 7, 8, 11, 17, 18, 20, 22, 23, 26, 30, 37},{5, 7, 11, 17, 18, 20, 22, 23, 30, 37},{5, 7, 11, 17, 20, 22, 23, 30, 37},{5, 7, 8, 11, 17, 18, 20, 22, 23, 26, 30, 37},{10, 17, 18, 22},{5, 7, 8, 11, 17, 20, 22, 23, 26, 30, 37},{5, 7, 11, 17, 20, 22, 23, 30, 37},{6, 12, 17, 19, 22, 24, 32, 33},{6, 12, 17, 22, 33},{10, 17, 18, 22}];
match_costs = [|0, 0, 0, 0, 0, 0, 0, 0, 0, 6014, 0, 0, 0, 0, 0, 0, 8777, 9117, 0, 0, 0, 8777, 0, 0, 0, 0, 0, 0, 0, 0, 0, 0, 0, 0, 0, 0, 0|
0, 0, 0, 0, 0, 0, 9388, 0, 3645, 0, 0, 0, 0, 0, 0, 0, 0, 0, 0, 0, 0, 0, 9456, 0, 0, 0, 0, 0, 0, 0, 0, 0, 0, 0, 0, 0, 9388|
0, 0, 0, 0, 0, 8801, 0, 0, 0, 0, 0, 6920, 0, 0, 0, 0, 9390, 0, 0, 0, 0, 9390, 0, 0, 0, 0, 0, 0, 0, 0, 0, 9472, 9399, 0, 0, 0, 0|
0, 0, 0, 0, 0, 8967, 0, 0, 0, 0, 0, 8657, 0, 0, 0, 0, 0, 0, 9387, 0, 0, 0, 0, 9387, 0, 0, 0, 0, 0, 0, 0, 8744, 8511, 0, 0, 0, 0|
0, 0, 0, 0, 0, 0, 9466, 0, 0, 0, 0, 0, 0, 0, 0, 0, 9009, 6617, 0, 0, 0, 9009, 9136, 0, 0, 0, 0, 0, 0, 0, 0, 0, 0, 0, 0, 0, 9466|
0, 0, 0, 0, 0, 0, 9085, 9314, 0, 9444, 8360, 0, 0, 0, 0, 0, 8631, 8993, 0, 8360, 0, 8631, 0, 0, 0, 9314, 0, 0, 0, 0, 0, 0, 0, 0, 0, 0, 9085|
0, 0, 0, 0, 7427, 0, 8812, 0, 0, 0, 8827, 0, 0, 0, 0, 0, 0, 9462, 0, 8827, 0, 0, 9026, 0, 0, 0, 0, 0, 0, 7427, 0, 0, 0, 0, 0, 0, 8812|
0, 0, 0, 0, 9406, 0, 9209, 0, 0, 0, 5071, 0, 0, 0, 0, 0, 0, 0, 0, 5071, 0, 0, 9206, 0, 0, 0, 0, 0, 0, 9406, 0, 0, 0, 0, 0, 0, 9209|
0, 0, 0, 0, 8937, 0, 9164, 0, 0, 0, 5479, 0, 0, 0, 0, 0, 0, 0, 0, 5479, 0, 0, 9060, 0, 0, 0, 0, 0, 0, 8937, 0, 0, 0, 0, 0, 0, 9164|
0, 0, 0, 0, 9447, 0, 8678, 0, 0, 0, 9146, 0, 0, 0, 0, 0, 8837, 8830, 0, 9146, 0, 8837, 9190, 0, 0, 0, 0, 0, 0, 9447, 0, 0, 0, 0, 0, 0, 8678|
0, 0, 0, 0, 0, 0, 0, 0, 0, 0, 0, 0, 0, 0, 0, 0, 9017, 6535, 0, 0, 0, 9017, 9041, 0, 0, 0, 0, 0, 0, 0, 0, 0, 0, 0, 0, 0, 0|
0, 0, 0, 0, 0, 8159, 0, 0, 0, 0, 0, 7738, 0, 0, 0, 0, 0, 0, 0, 0, 0, 0, 0, 0, 0, 0, 0, 0, 0, 0, 0, 8960, 9464, 0, 0, 0, 0|
0, 0, 0, 0, 0, 0, 0, 0, 0, 6470, 0, 0, 0, 0, 0, 0, 8438, 9070, 0, 0, 0, 8438, 0, 0, 0, 0, 0, 0, 0, 0, 0, 0, 0, 0, 0, 0, 0|
0, 0, 0, 0, 9435, 5977, 0, 0, 0, 0, 0, 7706, 0, 0, 0, 0, 0, 0, 0, 0, 0, 0, 0, 0, 0, 0, 0, 0, 0, 9435, 0, 0, 0, 0, 0, 0, 0|
0, 0, 0, 0, 0, 0, 9245, 9387, 0, 0, 6912, 0, 0, 0, 0, 0, 0, 0, 0, 6912, 0, 0, 9110, 0, 0, 9387, 0, 0, 9415, 0, 9415, 0, 0, 0, 0, 0, 9245|
0, 0, 0, 0, 0, 8418, 0, 0, 0, 0, 0, 8152, 0, 0, 0, 0, 0, 0, 0, 0, 0, 0, 0, 0, 0, 0, 0, 0, 0, 0, 0, 9131, 8865, 0, 0, 0, 0|
0, 0, 0, 0, 0, 0, 9206, 0, 4009, 0, 0, 0, 0, 0, 0, 0, 0, 0, 0, 0, 0, 0, 9310, 0, 0, 0, 0, 0, 0, 0, 0, 0, 0, 0, 0, 0, 9206|
0, 0, 0, 0, 0, 6145, 0, 0, 0, 0, 0, 7585, 0, 0, 0, 0, 0, 0, 0, 0, 0, 0, 0, 0, 0, 0, 0, 0, 0, 0, 0, 0, 0, 0, 0, 0, 0|
0, 0, 0, 0, 9234, 0, 8617, 9482, 0, 0, 8746, 0, 0, 0, 0, 0, 8854, 8968, 0, 8746, 0, 8854, 9364, 0, 0, 9482, 0, 0, 0, 9234, 0, 0, 0, 0, 0, 0, 8617|
0, 0, 0, 0, 8795, 0, 7335, 0, 0, 0, 8358, 0, 0, 0, 0, 0, 9489, 9462, 0, 8358, 0, 9489, 9484, 0, 0, 0, 0, 0, 0, 8795, 0, 0, 0, 0, 0, 0, 7335|
0, 0, 0, 0, 8992, 0, 6304, 0, 0, 0, 9464, 0, 0, 0, 0, 0, 9343, 0, 0, 9464, 0, 9343, 9153, 0, 0, 0, 0, 0, 0, 8992, 0, 0, 0, 0, 0, 0, 6304|
0, 0, 0, 0, 9263, 0, 8351, 9497, 0, 0, 9135, 0, 0, 0, 0, 0, 9071, 8931, 0, 9135, 0, 9071, 9102, 0, 0, 9497, 0, 0, 0, 9263, 0, 0, 0, 0, 0, 0, 8351|
0, 0, 0, 0, 0, 0, 0, 0, 0, 8521, 0, 0, 0, 0, 0, 0, 6442, 9251, 0, 0, 0, 6442, 0, 0, 0, 0, 0, 0, 0, 0, 0, 0, 0, 0, 0, 0, 0|
0, 0, 0, 0, 9437, 0, 8981, 9425, 0, 0, 7012, 0, 0, 0, 0, 0, 9489, 0, 0, 7012, 0, 9489, 9065, 0, 0, 9425, 0, 0, 0, 9437, 0, 0, 0, 0, 0, 0, 8981|
0, 0, 0, 0, 8355, 0, 8377, 0, 0, 0, 9043, 0, 0, 0, 0, 0, 9471, 0, 0, 9043, 0, 9471, 8758, 0, 0, 0, 0, 0, 0, 8355, 0, 0, 0, 0, 0, 0, 8377|
0, 0, 0, 0, 0, 9042, 0, 0, 0, 0, 0, 8926, 0, 0, 0, 0, 9391, 0, 9330, 0, 0, 9391, 0, 9330, 0, 0, 0, 0, 0, 0, 0, 8764, 8171, 0, 0, 0, 0|
0, 0, 0, 0, 0, 8877, 0, 0, 0, 0, 0, 6377, 0, 0, 0, 0, 9464, 0, 0, 0, 0, 9464, 0, 0, 0, 0, 0, 0, 0, 0, 0, 0, 9381, 0, 0, 0, 0|
0, 0, 0, 0, 0, 0, 0, 0, 0, 8798, 0, 0, 0, 0, 0, 0, 6389, 9285, 0, 0, 0, 6389, 0, 0, 0, 0, 0, 0, 0, 0, 0, 0, 0, 0, 0, 0, 0|];
match_costs_sorted = [|1, 2, 3, 4, 5, 6, 7, 8, 9, 11, 12, 13, 14, 15, 16, 19, 20, 21, 23, 24, 25, 26, 27, 28, 29, 30, 31, 32, 33, 34, 35, 36, 37, 10, 17, 22, 18|
1, 2, 3, 4, 5, 6, 8, 10, 11, 12, 13, 14, 15, 16, 17, 18, 19, 20, 21, 22, 24, 25, 26, 27, 28, 29, 30, 31, 32, 33, 34, 35, 36, 9, 7, 37, 23|
1, 2, 3, 4, 5, 7, 8, 9, 10, 11, 13, 14, 15, 16, 18, 19, 20, 21, 23, 24, 25, 26, 27, 28, 29, 30, 31, 34, 35, 36, 37, 12, 6, 17, 22, 33, 32|
1, 2, 3, 4, 5, 7, 8, 9, 10, 11, 13, 14, 15, 16, 17, 18, 20, 21, 22, 23, 25, 26, 27, 28, 29, 30, 31, 34, 35, 36, 37, 33, 12, 32, 6, 19, 24|
1, 2, 3, 4, 5, 6, 8, 9, 10, 11, 12, 13, 14, 15, 16, 19, 20, 21, 24, 25, 26, 27, 28, 29, 30, 31, 32, 33, 34, 35, 36, 18, 17, 22, 23, 7, 37|
1, 2, 3, 4, 5, 6, 9, 12, 13, 14, 15, 16, 19, 21, 23, 24, 25, 27, 28, 29, 30, 31, 32, 33, 34, 35, 36, 11, 20, 17, 22, 18, 7, 37, 8, 26, 10|
1, 2, 3, 4, 6, 8, 9, 10, 12, 13, 14, 15, 16, 17, 19, 21, 22, 24, 25, 26, 27, 28, 29, 31, 32, 33, 34, 35, 36, 5, 30, 7, 37, 11, 20, 23, 18|
1, 2, 3, 4, 6, 8, 9, 10, 12, 13, 14, 15, 16, 17, 18, 19, 21, 22, 24, 25, 26, 27, 28, 29, 31, 32, 33, 34, 35, 36, 11, 20, 23, 7, 37, 5, 30|
1, 2, 3, 4, 6, 8, 9, 10, 12, 13, 14, 15, 16, 17, 18, 19, 21, 22, 24, 25, 26, 27, 28, 29, 31, 32, 33, 34, 35, 36, 11, 20, 5, 30, 23, 7, 37|
1, 2, 3, 4, 6, 8, 9, 10, 12, 13, 14, 15, 16, 19, 21, 24, 25, 26, 27, 28, 29, 31, 32, 33, 34, 35, 36, 7, 37, 18, 17, 22, 11, 20, 23, 5, 30|
1, 2, 3, 4, 5, 6, 7, 8, 9, 10, 11, 12, 13, 14, 15, 16, 19, 20, 21, 24, 25, 26, 27, 28, 29, 30, 31, 32, 33, 34, 35, 36, 37, 18, 17, 22, 23|
1, 2, 3, 4, 5, 7, 8, 9, 10, 11, 13, 14, 15, 16, 17, 18, 19, 20, 21, 22, 23, 24, 25, 26, 27, 28, 29, 30, 31, 34, 35, 36, 37, 12, 6, 32, 33|
1, 2, 3, 4, 5, 6, 7, 8, 9, 11, 12, 13, 14, 15, 16, 19, 20, 21, 23, 24, 25, 26, 27, 28, 29, 30, 31, 32, 33, 34, 35, 36, 37, 10, 17, 22, 18|
1, 2, 3, 4, 7, 8, 9, 10, 11, 13, 14, 15, 16, 17, 18, 19, 20, 21, 22, 23, 24, 25, 26, 27, 28, 29, 31, 32, 33, 34, 35, 36, 37, 6, 12, 5, 30|
1, 2, 3, 4, 5, 6, 9, 10, 12, 13, 14, 15, 16, 17, 18, 19, 21, 22, 24, 25, 27, 28, 30, 32, 33, 34, 35, 36, 11, 20, 23, 7, 37, 8, 26, 29, 31|
1, 2, 3, 4, 5, 7, 8, 9, 10, 11, 13, 14, 15, 16, 17, 18, 19, 20, 21, 22, 23, 24, 25, 26, 27, 28, 29, 30, 31, 34, 35, 36, 37, 12, 6, 33, 32|
1, 2, 3, 4, 5, 6, 8, 10, 11, 12, 13, 14, 15, 16, 17, 18, 19, 20, 21, 22, 24, 25, 26, 27, 28, 29, 30, 31, 32, 33, 34, 35, 36, 9, 7, 37, 23|
1, 2, 3, 4, 5, 7, 8, 9, 10, 11, 13, 14, 15, 16, 17, 18, 19, 20, 21, 22, 23, 24, 25, 26, 27, 28, 29, 30, 31, 32, 33, 34, 35, 36, 37, 6, 12|
1, 2, 3, 4, 6, 9, 10, 12, 13, 14, 15, 16, 19, 21, 24, 25, 27, 28, 29, 31, 32, 33, 34, 35, 36, 7, 37, 11, 20, 17, 22, 18, 5, 30, 23, 8, 26|
1, 2, 3, 4, 6, 8, 9, 10, 12, 13, 14, 15, 16, 19, 21, 24, 25, 26, 27, 28, 29, 31, 32, 33, 34, 35, 36, 7, 37, 11, 20, 5, 30, 18, 23, 17, 22|
1, 2, 3, 4, 6, 8, 9, 10, 12, 13, 14, 15, 16, 18, 19, 21, 24, 25, 26, 27, 28, 29, 31, 32, 33, 34, 35, 36, 7, 37, 5, 30, 23, 17, 22, 11, 20|
1, 2, 3, 4, 6, 9, 10, 12, 13, 14, 15, 16, 19, 21, 24, 25, 27, 28, 29, 31, 32, 33, 34, 35, 36, 7, 37, 18, 17, 22, 23, 11, 20, 5, 30, 8, 26|
1, 2, 3, 4, 5, 6, 7, 8, 9, 11, 12, 13, 14, 15, 16, 19, 20, 21, 23, 24, 25, 26, 27, 28, 29, 30, 31, 32, 33, 34, 35, 36, 37, 17, 22, 10, 18|
1, 2, 3, 4, 6, 9, 10, 12, 13, 14, 15, 16, 18, 19, 21, 24, 25, 27, 28, 29, 31, 32, 33, 34, 35, 36, 11, 20, 7, 37, 23, 8, 26, 5, 30, 17, 22|
1, 2, 3, 4, 6, 8, 9, 10, 12, 13, 14, 15, 16, 18, 19, 21, 24, 25, 26, 27, 28, 29, 31, 32, 33, 34, 35, 36, 5, 30, 7, 37, 23, 11, 20, 17, 22|
1, 2, 3, 4, 5, 7, 8, 9, 10, 11, 13, 14, 15, 16, 18, 20, 21, 23, 25, 26, 27, 28, 29, 30, 31, 34, 35, 36, 37, 33, 32, 12, 6, 19, 24, 17, 22|
1, 2, 3, 4, 5, 7, 8, 9, 10, 11, 13, 14, 15, 16, 18, 19, 20, 21, 23, 24, 25, 26, 27, 28, 29, 30, 31, 32, 34, 35, 36, 37, 12, 6, 33, 17, 22|
1, 2, 3, 4, 5, 6, 7, 8, 9, 11, 12, 13, 14, 15, 16, 19, 20, 21, 23, 24, 25, 26, 27, 28, 29, 30, 31, 32, 33, 34, 35, 36, 37, 17, 22, 10, 18|];
attribute_names =  [154, 155, 156, 157, 158, 159, 160, 161, 162, 163, 164, 165, 166, 167, 168, 169, 170, 171, 172, 173, 174, 175, 176, 177, 178, 179, 180, 181];
